==> MAXTIME              = 3600
==> OUTPUTLOG            = 1
==> GOMCUTS              = 10
FICO Xpress v8.5.9, solve started 23:39:58, Jun 8, 2019
Maximizing MILP Seating model
Original problem has:
       230 rows          300 cols         7440 elements       300 globals
Presolved problem has:
       103 rows          204 cols         2431 elements       198 globals
LP relaxation tightened
Will try to keep branch and bound tree memory usage below 7.2GB
 *** Heuristic solution found:    22.000000      Time: 0 ***
Starting concurrent solve with dual

 Concurrent-Solve,   0s
            Dual        
    objective   dual inf
 D  102.00000   .0000000
------- optimal --------
Concurrent statistics:
      Dual: 34 simplex iterations, 0.00s
Optimal solution found
 
   Its         Obj Value      S   Ninf  Nneg   Sum Dual Inf  Time
    34        102.000000      D      0     0        .000000     0
Dual solved problem
  34 simplex iterations in 0s

Final objective                         : 1.020000000000000e+02
  Max primal violation      (abs / rel) : 1.110e-16 / 9.869e-17
  Max dual violation        (abs / rel) :       0.0 /       0.0
  Max complementarity viol. (abs / rel) :       0.0 /       0.0
All values within tolerances

Starting root cutting & heuristics
 
 Its Type    BestSoln    BestBound   Sols    Add    Del     Gap     GInf   Time
   1  K     22.000000   102.000000      1     99      0   78.43%      29      0
   2  K     22.000000   102.000000      1     97     81   78.43%      43      0
   3  K     22.000000   102.000000      1     71     93   78.43%      36      0
   4  K     22.000000   102.000000      1     81     65   78.43%      31      0
   5  K     22.000000   102.000000      1     69     83   78.43%      52      0
   6  K     22.000000   102.000000      1     74     62   78.43%      60      0
   7  K     22.000000   102.000000      1     86     70   78.43%      58      0
   8  K     22.000000   102.000000      1     46     84   78.43%      64      0
   9  K     22.000000   102.000000      1     94     50   78.43%      56      0
  10  K     22.000000   102.000000      1     67     84   78.43%      58      0
  11  K     22.000000   102.000000      1     95     65   78.43%      70      0
  12  K     22.000000   102.000000      1     85     87   78.43%      72      0
  13  K     22.000000   102.000000      1    110     89   78.43%      72      0
  14  K     22.000000   102.000000      1     98    109   78.43%      73      0
  15  K     22.000000   102.000000      1     82     85   78.43%      85      0
  16  K     22.000000   102.000000      1    103     97   78.43%      66      0
  17  K     22.000000   102.000000      1    112    109   78.43%      63      0
  18  K     22.000000   102.000000      1     85     92   78.43%      84      0
  19  K     22.000000   102.000000      1     90     94   78.43%      80      0
  20  K     22.000000   102.000000      1    104    178   78.43%      88      0
Heuristic search started
Heuristic search stopped
M           28.000000   102.000000      2                 72.55%       0      0
M           31.000000   102.000000      3                 69.61%       0      0
M           36.000000   102.000000      4                 64.71%       0      0
M           41.000000   102.000000      5                 59.80%       0      0
M           46.000000   102.000000      6                 54.90%       0      0
M           50.000000   102.000000      7                 50.98%       0      0
 
Cuts in the matrix         : 71
Cut elements in the matrix : 1508
 
Starting tree search.
Deterministic mode with up to 4 running threads and up to 8 tasks.
 
    Node     BestSoln    BestBound   Sols Active  Depth     Gap     GInf   Time
       1    50.000000   102.000000      7      2      1   50.98%      54      0
       2    50.000000   102.000000      7      2      2   50.98%      65      0
       3    50.000000   102.000000      7      2      3   50.98%      48      0
       4    50.000000   102.000000      7      2      2   50.98%      55      0
       5    50.000000   102.000000      7      2      3   50.98%      38      0
       6    50.000000   102.000000      7      2      4   50.98%      55      0
       7    50.000000   102.000000      7      5      5   50.98%      52      0
       8    50.000000   102.000000      7      5      4   50.98%      35      0
       9    50.000000   102.000000      7      7      1   50.98%       1      0
      10    50.000000   102.000000      7      7      4   50.98%      38      0
      20    50.000000   102.000000      7     13      9   50.98%      52      1
      32    50.000000   102.000000      7     13     11   50.98%      28      1
      45    50.000000   102.000000      7     13     20   50.98%      50      1
      58    50.000000   102.000000      7     13     28   50.98%      48      1
      68    50.000000   102.000000      7     13     28   50.98%      26      1
      79    50.000000   102.000000      7     36      8   50.98%      41      1
      93    50.000000   102.000000      7     36     44   50.98%      54      1
     110    50.000000   102.000000      7     36     25   50.98%      18      1
     210    50.000000   102.000000      7     87     44   50.98%      38      1
B&B tree size: 1.4MB total
 
    Node     BestSoln    BestBound   Sols Active  Depth     Gap     GInf   Time
     311    50.000000   102.000000      7     87     10   50.98%      27      1
     413    50.000000   102.000000      7     87     63   50.98%      20      1
     518    50.000000   102.000000      7     87     58   50.98%      17      1
     624    50.000000   102.000000      7     87     48   50.98%      37      1
     725    50.000000   102.000000      7    182     32   50.98%      31      2
     832    50.000000   102.000000      7    182     16   50.98%      38      2
     939    50.000000   102.000000      7    182     61   50.98%      24      2
    1044    50.000000   102.000000      7    182     58   50.98%      17      2
    1147    50.000000   102.000000      7    310     78   50.98%      42      2
    1259    50.000000   102.000000      7    310     68   50.98%      25      2
a   1287    60.000000   102.000000      8    310     20   41.18%       0      2
    1370    60.000000   102.000000      8    310     27   41.18%      16      2
    1483    60.000000   102.000000      8    310     69   41.18%      21      2
    1583    60.000000   102.000000      8    310     31   41.18%      33      2
    1741    60.000000   102.000000      8    369      1   41.18%       1      2
    1843    60.000000   102.000000      8    491      1   41.18%       1      2
    1954    60.000000   102.000000      8    491     21   41.18%      20      2
    2065    60.000000   102.000000      8    491     14   41.18%      33      3
    2168    60.000000   102.000000      8    491     57   41.18%      34      3
    2292    60.000000   102.000000      8    638      1   41.18%       1      3
B&B tree size: 6.1MB total
 
    Node     BestSoln    BestBound   Sols Active  Depth     Gap     GInf   Time
    2395    60.000000   102.000000      8    638     49   41.18%      37      3
    2498    60.000000   102.000000      8    638     29   41.18%      44      3
    2604    60.000000   102.000000      8    638     37   41.18%      35      3
    2708    60.000000   102.000000      8    638     23   41.18%      21      3
    2815    60.000000   102.000000      8    638     18   41.18%      31      3
    2932    60.000000   102.000000      8    638     29   41.18%      27      3
    3044    60.000000   102.000000      8    638     52   41.18%      26      3
    3147    60.000000   102.000000      8    638     62   41.18%      25      3
    3253    60.000000   102.000000      8    735     62   41.18%      25      4
    3365    60.000000   102.000000      8    905     40   41.18%      23      4
    3466    60.000000   102.000000      8    905     58   41.18%      22      4
    3582    60.000000   102.000000      8    905     44   41.18%      21      4
    3688    60.000000   102.000000      8    905     49   41.18%      31      4
    3816    60.000000   102.000000      8   1100      1   41.18%       1      4
    3916    60.000000   102.000000      8   1269     44   41.18%      32      4
    4020    60.000000   102.000000      8   1269     50   41.18%      25      4
    4132    60.000000   102.000000      8   1269     33   41.18%      37      4
    4257    60.000000   102.000000      8   1345     57   41.18%      24      4
    4366    60.000000   102.000000      8   1345     49   41.18%      23      4
    4476    60.000000   102.000000      8   1574     56   41.18%      29      4
B&B tree size: 10MB total
 
    Node     BestSoln    BestBound   Sols Active  Depth     Gap     GInf   Time
    4578    60.000000   102.000000      8   1744     47   41.18%      36      4
    4689    60.000000   102.000000      8   1744     33   41.18%      38      4
    4793    60.000000   102.000000      8   1744     39   41.18%      25      4
    4896    60.000000   102.000000      8   1744     55   41.18%      28      4
    4998    60.000000   102.000000      8   1744     73   41.18%      19      4
    5102    60.000000   102.000000      8   1744     67   41.18%      30      5
    5224    60.000000   102.000000      8   1744     77   41.18%      27      5
    5327    60.000000   102.000000      8   1744     47   41.18%      34      5
    5437    60.000000   102.000000      8   1744     67   41.18%      41      5
    5538    60.000000   102.000000      8   1744     62   41.18%      43      5
    5640    60.000000   102.000000      8   1744     58   41.18%      12      5
    5741    60.000000   102.000000      8   1744     28   41.18%      55      5
    5849    60.000000   102.000000      8   1744     30   41.18%      43      5
    5960    60.000000   102.000000      8   1744     70   41.18%      33      5
    6069    60.000000   102.000000      8   1744     72   41.18%      41      5
    6171    60.000000   102.000000      8   1816     64   41.18%      30      5
    6278    60.000000   102.000000      8   1816     21   41.18%      32      5
    6390    60.000000   102.000000      8   1816     58   41.18%      29      5
    6499    60.000000   102.000000      8   1816     35   41.18%      17      5
    6611    60.000000   102.000000      8   1996     88   41.18%       5      5
B&B tree size: 14MB total
 
    Node     BestSoln    BestBound   Sols Active  Depth     Gap     GInf   Time
    6714    60.000000   102.000000      8   1996     77   41.18%      41      5
    6815    60.000000   102.000000      8   1996     41   41.18%      29      6
    6941    60.000000   102.000000      8   2146      1   41.18%       1      6
    7046    60.000000   102.000000      8   2276     43   41.18%      41      6
    7147    60.000000   102.000000      8   2276     54   41.18%      25      6
    7250    60.000000   102.000000      8   2276     58   41.18%      37      6
    7350    60.000000   102.000000      8   2276     28   41.18%      16      6
    7458    60.000000   102.000000      8   2276     53   41.18%      36      6
    7564    60.000000   102.000000      8   2276     62   41.18%      37      6
    7666    60.000000   102.000000      8   2276     62   41.18%      21      6
    7771    60.000000   102.000000      8   2496     29   41.18%      53      6
    7897    60.000000   102.000000      8   2496     44   41.18%      15      6
    7998    60.000000   102.000000      8   2496     58   41.18%      28      6
    8101    60.000000   102.000000      8   2702     32   41.18%      68      6
    8207    60.000000   100.853569      8   3044      1   40.51%       1      6
    8316    60.000000   100.853569      8   3044     58   40.51%      42      6
    8429    60.000000   100.853569      8   3044     49   40.51%      25      6
    8540    60.000000   100.853569      8   3044     61   40.51%      48      6
    8646    60.000000   100.853569      8   3044     53   40.51%      22      6
    8748    60.000000   100.853569      8   3134     51   40.51%      28      7
B&B tree size: 16MB total
 
    Node     BestSoln    BestBound   Sols Active  Depth     Gap     GInf   Time
    8857    60.000000   100.853569      8   3134     31   40.51%      29      7
    8959    60.000000   100.853569      8   3213     28   40.51%      30      7
    9066    60.000000   100.853569      8   3308     32   40.51%      28      7
    9175    60.000000   100.853569      8   3308     53   40.51%      30      7
    9288    60.000000    95.147792      8   3508     72   36.94%      22      7
    9399    60.000000    95.147792      8   3508     56   36.94%      30      7
    9513    60.000000    95.147792      8   3508     39   36.94%      23      7
    9614    60.000000    95.147792      8   3508     32   36.94%      35      7
    9715    60.000000    95.147792      8   3518     78   36.94%      46      7
    9817    60.000000    95.147792      8   3518     36   36.94%      30      7
    9926    60.000000    95.147792      8   3656     45   36.94%      31      7
   10041    60.000000    95.147792      8   3656     59   36.94%      22      7
   11047    60.000000    94.882353      8   3903     67   36.76%      44      8
   12060    60.000000    94.882353      8   4221     77   36.76%      31      9
   13065    60.000000    92.666667      8   4600     61   35.25%      20     10
   14077    60.000000    92.000000      8   4824     61   34.78%      28     10
   15081    60.000000    92.000000      8   5059     66   34.78%      39     11
   16089    60.000000    91.000000      8   5214     73   34.07%      44     12
   17093    60.000000    89.240206      8   5623      1   32.77%       1     12
   18094    60.000000    89.240206      8   5832     43   32.77%      22     13
B&B tree size: 32MB total
 
    Node     BestSoln    BestBound   Sols Active  Depth     Gap     GInf   Time
   19100    60.000000    88.479982      8   6113     50   32.19%      32     14
   20115    60.000000    88.000000      8   6557     64   31.82%      28     15
   21130    60.000000    88.000000      8   6871     45   31.82%      36     16
   22132    60.000000    88.000000      8   7095     64   31.82%      30     16
   23134    60.000000    88.000000      8   7559     46   31.82%      26     17
   24144    60.000000    88.000000      8   7774     69   31.82%       6     18
   25151    60.000000    87.000000      8   8107     76   31.03%      32     19
   26158    60.000000    87.000000      8   8344     37   31.03%      49     19
   27166    60.000000    86.202260      8   8516     41   30.40%      28     20
   28174    60.000000    86.073195      8   8764     57   30.29%      58     21
   29184    60.000000    86.000000      8   8888     66   30.23%      34     22
   30189    60.000000    86.000000      8   9190     45   30.23%      48     22
   31193    60.000000    85.000000      8   9392     36   29.41%      40     23
   32195    60.000000    85.000000      8   9588     47   29.41%      28     24
   33202    60.000000    85.000000      8   9806     75   29.41%      45     24
   34218    60.000000    85.000000      8  10113     32   29.41%      19     25
   35223    60.000000    85.000000      8  10313     39   29.41%      27     26
   36234    60.000000    85.000000      8  10644     42   29.41%      25     27
   37240    60.000000    85.000000      8  10767     22   29.41%      33     27
   38256    60.000000    84.443165      8  11164     64   28.95%      16     28
B&B tree size: 56MB total
 
    Node     BestSoln    BestBound   Sols Active  Depth     Gap     GInf   Time
   39260    60.000000    84.037965      8  11277     82   28.60%      35     29
   40268    60.000000    84.037965      8  11398     64   28.60%      54     30
   41274    60.000000    84.000000      8  11617     57   28.57%      25     30
   42282    60.000000    83.695076      8  11877     73   28.31%      27     31
   43286    60.000000    83.526105      8  12038     27   28.17%      26     32
   44297    60.000000    83.372130      8  12264     43   28.03%      27     33
   45306    60.000000    83.000000      8  12519     51   27.71%      22     33
   46312    60.000000    83.000000      8  12723     28   27.71%      20     34
   47321    60.000000    83.000000      8  12819     65   27.71%      36     34
   48323    60.000000    82.914966      8  13078     31   27.64%      31     35
   49328    60.000000    82.720455      8  13278     36   27.47%      43     36
   50334    60.000000    82.494938      8  13433     37   27.27%      35     37
   51335    60.000000    82.250000      8  13598      1   27.05%       1     37
   52342    60.000000    82.140599      8  13650     75   26.95%      40     38
   53346    60.000000    82.000000      8  13942     61   26.83%      23     39
   54349    60.000000    82.000000      8  14118     32   26.83%      15     39
   55350    60.000000    82.000000      8  14328     57   26.83%      15     40
   56353    60.000000    82.000000      8  14540     57   26.83%      27     41
   57359    60.000000    82.000000      8  14622     32   26.83%      28     41
   58361    60.000000    82.000000      8  14731     21   26.83%      37     42
B&B tree size: 76MB total
 
    Node     BestSoln    BestBound   Sols Active  Depth     Gap     GInf   Time
   59370    60.000000    81.826389      8  14942     45   26.67%      18     43
   60379    60.000000    81.744451      8  15025     72   26.60%      24     43
   61390    60.000000    81.616141      8  15213     54   26.49%      24     44
   62392    60.000000    81.616141      8  15315     41   26.49%       9     45
   63403    60.000000    81.091285      8  15580     61   26.01%      26     46
   64413    60.000000    81.001832      8  15677     23   25.93%      31     47
   65416    60.000000    81.000000      8  15838     39   25.93%      29     48
   66419    60.000000    81.000000      8  16080     38   25.93%      31     48
   67427    60.000000    81.000000      8  16265     30   25.93%      20     49
   68437    60.000000    81.000000      8  16422     51   25.93%      29     50
   69443    60.000000    81.000000      8  16537     43   25.93%      28     50
   70451    60.000000    81.000000      8  16704     60   25.93%      21     51
User interrupt (9) triggered.
 *** Search unfinished ***    Time:    52 Nodes:      70745
Number of integer feasible solutions found is 8
Best integer solution found is    60.000000
Best bound is    81.000000
